c --- [ banner ] -------------------------------------------------------------
c 
c CaDiCaL Radically Simplified CDCL SAT Solver
c Copyright (c) 2016-2021 A. Biere, M. Fleury, N. Froleyks
c 
c Version 1.5.2 9c38a080b32c28d805e8e6ca21849856b0cda605
c g++ (Ubuntu 7.5.0-3ubuntu1~18.04) 7.5.0 -Wall -Wextra -O3 -DNDEBUG
c Wed Feb 16 23:15:36 EST 2022 Linux fac-vanhoeve01 5.4.0-99-generic x86_64
c 
c --- [ parsing input ] ------------------------------------------------------
c 
c reading DIMACS file from '<stdin>' (use '-h' for a list of common options)
c found 'p cnf 2692 7976' header
c parsed 7976 clauses in 0.00 seconds process time
c disconnecting from '<stdin>'
c after reading 106558 bytes 0.1 MB
c 
c --- [ options ] ------------------------------------------------------------
c 
c all options are set to their default value
c 
c --- [ solving ] ------------------------------------------------------------
c 
c time measured in process time since initialization
c 
c  seconds  reductions  redundant irredundant
c         MB    restarts       trail    variables
c          level   conflicts       glue      remaining
c 
c *  0.00  4  0 0   0    0    0  0% 0 7974 2618 97%
c {  0.01  4  0 0   0    0    0  0% 0 7974 2618 97%
c -  0.03  5 82 1  54  301  283 76% 9 7902 2618 97%
c -  0.06  5 41 2  84  902  708 84% 9 7902 2618 97%
c }  0.06  5 38 2  84 1000  801 85% 9 7902 2618 97%
c [  0.06  5  0 2  84 1000  801  0% 0 7902 2618 97%
c O  0.06  5 16 2  84 1002  803 92% 11 7902 2618 97%
c -  0.11  6 17 3  84 1803  928 93% 13 7902 2618 97%
c ]  0.18  6 17 3  85 3001 1661 93% 14 7902 2618 97%
c {  0.18  6 38 3  85 3001 1661 85% 9 7902 2618 97%
c -  0.18  6 38 4  86 3006 1216 85% 9 7902 2618 97%
c F  0.18  6 38 4  86 3007 1217 85% 9 7902 2618 97%
c s  0.20  6 36 4 111 3215 1405 86% 9 7902 2618 97%
c e  0.22  6 36 4 111 3215   50 86% 9 5685 885 33%
c s  0.22  6 36 4 111 3215   46 86% 9 5685 885 33%
c -  0.29  6 27 5 242 4506 1217 80% 10 5685 885 33%
c 2  0.31  6 27 5 315 5000 1683 81% 10 5685 885 33%
c p  0.31  6 27 5 315 5000 1688 81% 10 5685 885 33%
c #  0.36  6 25 5 415 6008 2647 83% 10 5685 885 33%
c -  0.37  6 25 6 415 6306 2240 83% 10 5685 885 33%
c 
c  seconds  reductions  redundant  irredundant
c         MB    restarts       trail     variables
c          level   conflicts       glue      remaining
c 
c }  0.40  6 24 6 436 7001 2877 84% 10 5685 885 33%
c [  0.40  6 17 6 436 7001 2877 282% 14 5685 885 33%
c -  0.46  6 20 7 437 8406 2741 202% 15 5685 885 33%
c I  0.54  6 21 7 438 10009 4099 165% 15 5685 885 33%
c -  0.59  7 22 8 439 10807 3194 153% 16 5685 885 33%
c -  0.75  7 24 9 441 13509 3564 130% 17 5685 885 33%
c s  0.78  7 25 9 441 13952 3963 127% 17 5685 885 33%
c w  0.78  7 25 9 441 13952 3963 127% 17 5685 885 33%
c s  0.79  7 25 9 441 13952 3962 127% 17 5685 885 33%
c ^  0.79  7 25 9 441 13952 3962 127% 17 5685 885 33%
c p  0.86  7 25 9 441 15000 4882 123% 17 5685 885 33%
c ]  0.86  7 25 9 441 15002 4884 122% 17 5685 885 33%
c {  0.86  7 24 9 441 15002 4884 84% 10 5685 885 33%
c B  0.86  7 24 9 441 15011 4893 84% 10 5685 885 33%
c -  0.93  7 23 10 492 16511 4032 80% 10 5685 885 33%
c -  1.08  6 22 11 671 19812 4492 82% 10 5685 885 33%
c W  1.13  6 21 11 673 21016 5472 78% 10 5685 885 33%
c -  1.25  7 21 12 848 23412 5059 78% 10 5685 885 33%
c -  1.42  7 20 13 1076 27312 5789 77% 10 5685 885 33%
c F  1.46  7 20 13 1156 28017 6435 77% 10 5685 885 33%
c 
c  seconds  reductions     redundant  irredundant
c         MB     restarts         trail     variables
c          level      conflicts       glue      remaining
c 
c p  1.56  7 20 13 1368 30000 8290 78% 10 5685 885 33%
c s  1.57  7 20 13 1368 30054 8316 78% 10 5685 885 33%
c w  1.58  7 20 13 1368 30054 8313 78% 10 5685 885 33%
c s  1.60  7 20 13 1368 30054 8306 78% 10 5685 885 33%
c ^  1.60  7 20 13 1368 30054 8306 78% 10 5685 885 33%
c }  1.65  7 20 13 1471 31002 9179 78% 10 5685 885 33%
c [  1.65  7 25 13 1471 31002 9179 122% 17 5685 885 33%
c -  1.67  7 25 14 1471 31512 6579 121% 17 5685 885 33%
c -  1.88  7 22 15 1474 36013 6042 111% 16 5685 885 33%
c B  1.88  7 22 15 1474 36018 6046 111% 16 5685 885 33%
c -  2.15  8 25 16 1477 40815 6387 104% 17 5685 885 33%
c W  2.41  8 25 16 1478 45020 10030 101% 17 5685 885 33%
c -  2.47  7 24 17 1478 45917 6371 101% 17 5685 885 33%
c p  2.68  7 24 17 1479 50000 9128 99% 17 5685 885 33%
c -  2.76  8 23 18 1479 51320 6374 98% 17 5685 885 33%
c s  2.78  8 23 18 1479 51523 6509 98% 17 5685 885 33%
c s  2.80  8 23 18 1479 51523 6509 98% 17 5685 885 33%
c ^  2.80  8 23 18 1479 51523 6509 98% 17 5685 885 33%
c O  2.99  8 23 18 1480 55021 9003 97% 16 5685 885 33%
c -  3.09  8 23 19 1482 57020 6918 96% 16 5685 885 33%
c 
c  seconds  reductions      redundant  irredundant
c         MB     restarts          trail     variables
c          level      conflicts        glue      remaining
c 
c ]  3.42  8 23 19 1486 63002 11875 95% 16 5685 885 33%
c {  3.42  8 20 19 1486 63002 11875 78% 10 5685 885 33%
c -  3.43  8 20 20 1489 63020 7834 78% 10 5685 885 33%
c B  3.59  8 20 20 1719 66024 10601 79% 10 5685 885 33%
c -  3.77  9 20 21 1953 69323 8747 79% 10 5685 885 33%
c p  4.06  9 20 21 2217 75000 13992 79% 10 5685 885 33%
c -  4.12  9 19 22 2236 75925 9949 79% 10 5685 885 33%
c W  4.26  9 19 22 2374 78026 11882 80% 10 5685 885 33%
c s  4.29  9 19 22 2426 78358 12125 80% 10 5685 885 33%
c s  4.34  9 19 22 2426 78358 12104 80% 10 5685 885 33%
c ^  4.34  9 19 22 2426 78358 12104 80% 10 5685 885 33%
c -  4.59  9 19 23 2576 82825 11199 80% 10 5685 885 33%
c -  5.00 10 19 24 3128 90025 11736 81% 10 5685 885 33%
c #  5.05 10 19 24 3177 91031 12602 81% 10 5685 885 33%
c -  5.42  9 19 25 3569 97525 12227 81% 10 5685 885 33%
c p  5.89  9 19 25 4247 105000 19175 81% 10 5685 878 33%
c B  5.90  9 19 25 4247 105033 19208 81% 10 5685 878 33%
c -  5.92 10 19 26 4281 105325 13022 81% 10 5664 878 33%
c s  6.24 10 19 26 4643 110559 17615 81% 10 5655 878 33%
c w  6.26 10 19 26 4643 110559 17612 81% 10 5655 878 33%
c 
c  seconds  reductions      redundant  irredundant
c         MB     restarts          trail     variables
c          level      conflicts        glue      remaining
c 
c e  6.27 10 19 26 4643 110559 4337 81% 10 8063 563 21%
c s  6.29 10 19 26 4643 110559 4336 81% 10 8063 563 21%
c ^  6.29 10 19 26 4643 110559 4336 81% 10 8063 563 21%
c -  6.42  9 19 27 4856 113425 5410 81% 10 8063 563 21%
c W  6.77  9 18 27 5029 120035 10977 76% 10 8063 563 21%
c -  6.88 10 18 28 5155 121827 9790 76% 10 8063 563 21%
c }  7.13 10 18 28 5396 127003 14265 76% 10 8063 563 21%
c [  7.13 10 23 28 5396 127003 14265 149% 16 8063 563 21%
c -  7.34  9 22 29 5396 130528 12813 143% 16 8063 563 21%
c B  7.64  9 23 29 5401 136036 17907 136% 16 8063 563 21%
c -  7.85 10 25 30 5403 139529 14285 132% 17 8063 563 21%
c p  7.89 10 25 30 5403 140000 14735 132% 17 8063 563 21%
c -  8.42 10 27 31 5404 148829 13398 124% 18 8063 563 21%
c W  8.73 10 27 31 5405 153037 17119 121% 19 8063 563 21%
c -  9.11 10 28 32 5405 158430 13578 118% 20 8063 563 21%
c s  9.51 10 28 32 5405 164321 18396 115% 20 8063 563 21%
c w  9.53 10 28 32 5405 164321 18395 115% 20 8063 563 21%
c s  9.56 10 28 32 5405 164321 18392 115% 20 8063 563 21%
c -  9.86 12 28 33 5406 168331 13379 113% 20 8063 563 21%
c I 10.04 12 28 33 5408 171039 15153 112% 20 8063 563 21%
c 
c  seconds  reductions       redundant   irredundant
c         MB     restarts           trail      variables
c          level      conflicts          glue      remaining
c 
c - 10.56 13 28 34 5412 178531 14238 109% 20 8063 563 21%
c p 10.69 13 28 34 5412 180002 15560 109% 20 8063 563 21%
c - 11.44 14 28 35 5419 189031 15591 106% 20 8063 563 21%
c B 11.52 14 27 35 5419 190041 16489 106% 20 8063 563 21%
c - 12.32 12 27 36 5420 199832 15264 103% 20 8063 563 21%
c W 13.09 12 27 36 5427 210044 23437 101% 20 8063 563 21%
c - 13.17 13 27 37 5427 210932 15217 101% 20 8063 563 21%
c - 14.03 15 27 38 5434 222332 16260 99% 20 8063 563 21%
c p 14.23 15 27 38 5434 225002 18563 99% 20 8063 563 21%
c O 14.70 15 27 38 5435 231046 23390 98% 20 8063 563 21%
c - 14.88 15 27 39 5435 234033 16382 97% 20 8063 563 21%
c - 15.54 15 26 40 5436 246033 14246 95% 19 8063 563 21%
c B 15.93 15 25 40 5437 253047 18479 94% 19 8063 563 21%
c ] 16.05 15 25 40 5437 255004 20146 94% 19 8063 563 21%
c { 16.05 15 18 40 5437 255004 20146 76% 10 8063 563 21%
c - 16.27 15 18 41 5692 258336 15170 78% 10 8063 563 21%
c - 17.07 15 18 42 6868 270938 18166 80% 10 8063 563 21%
c p 17.32 15 18 42 7194 275002 21682 79% 10 8063 563 21%
c F 17.40 15 18 42 7339 276048 22658 80% 10 8063 563 21%
c - 17.92 15 18 43 7880 283838 20469 79% 10 8063 563 21%
c 
c  seconds  reductions       redundant  irredundant
c         MB     restarts           trail     variables
c          level      conflicts         glue      remaining
c 
c - 18.89 15 18 44 9113 297038 21984 80% 10 8063 563 21%
c B 19.10 15 18 44 9461 300049 24763 80% 10 8063 563 21%
c - 19.82 15 18 45 10251 310538 22722 80% 10 8063 563 21%
c - 20.79 15 18 46 11429 324338 23180 79% 10 8063 563 21%
c W 20.93 15 18 46 11496 325051 23861 79% 10 8063 563 21%
c p 21.26 15 18 46 11743 330002 28159 79% 10 8063 563 21%
c - 21.91 15 18 47 12435 338442 24352 79% 10 8063 563 21%
c # 22.81 15 18 47 13496 351053 35537 79% 10 8063 563 21%
c - 22.94 16 18 48 13554 352842 25351 79% 10 8063 563 21%
c - 24.09 16 18 49 14813 367542 26256 79% 10 8063 563 21%
c B 24.85 16 18 49 15464 378054 35367 80% 10 8063 563 21%
c - 25.27 16 18 50 16002 382542 27049 80% 10 8063 563 21%
c p 25.82 16 18 50 16601 390002 33594 80% 10 8063 563 21%
c - 26.45 17 18 51 17180 397842 27728 80% 10 8063 563 21%
c W 27.16 17 18 51 17828 406055 34961 80% 10 8063 563 21%
c - 27.75 17 18 52 18355 413442 28229 79% 10 8063 563 21%
c - 29.04 19 18 53 19800 429344 29735 80% 10 8063 563 21%
c F 29.49 19 18 53 20325 435057 34871 80% 10 8063 563 21%
c - 30.28 17 18 54 21002 445545 30294 79% 10 8063 563 21%
c p 30.99 17 18 54 21681 455005 38756 78% 10 8063 561 21%
c 
c  seconds  reductions        redundant  irredundant
c         MB      restarts           trail     variables
c          level       conflicts         glue      remaining
c 
c s 31.06 17 18 54 21681 455005 38600 78% 10 8063 561 21%
c v 31.10 17 18 54 21681 455005 38600 78% 10 8047 561 21%
c w 31.16 17 18 54 21681 455005 38578 78% 10 8047 561 21%
c s 31.24 17 18 54 21681 455005 38566 78% 10 8037 561 21%
c - 31.90 17 18 55 22295 462047 31509 79% 10 8037 561 21%
c B 32.12 17 18 55 22471 465059 34099 79% 10 8037 561 21%
c - 33.30 17 18 56 23610 478847 31654 79% 10 8037 561 21%
c - 34.68 17 18 57 24763 495949 32428 79% 10 8037 561 21%
c W 34.82 17 18 57 24764 496060 32532 79% 10 8037 561 21%
c } 36.05 17 18 57 25979 511008 45946 79% 10 8037 561 21%
c [ 36.05 17 25 57 25979 511008 45946 94% 19 8037 561 21%
c - 36.22 14 25 58 25979 513349 33418 94% 19 8037 561 21%
c s 37.00 15 26 58 25979 524136 43303 93% 19 8037 561 21%
c w 37.07 15 26 58 25979 524136 43302 93% 19 8037 561 21%
c s 37.16 15 26 58 25979 524136 43300 93% 19 8037 561 21%
c p 37.27 15 27 58 25979 525005 44154 93% 19 8037 561 21%
c W 37.66 15 27 58 25979 528061 46968 93% 19 8037 561 21%
c - 37.88 15 27 59 25979 531049 33538 92% 19 8037 561 21%
c - 39.18 15 26 60 25986 549050 29699 92% 19 8037 561 21%
c I 40.14 15 26 60 25992 561062 39616 91% 19 8037 561 21%
c 
c  seconds  reductions        redundant  irredundant
c         MB      restarts           trail     variables
c          level       conflicts         glue      remaining
c 
c - 40.70 15 26 61 25994 567350 30124 91% 19 8037 561 21%
c - 42.39 16 27 62 26001 585951 30685 90% 19 8037 561 21%
c B 43.21 16 27 62 26008 595063 38534 90% 20 8037 561 21%
c p 43.59 16 28 62 26009 600006 43235 90% 20 8037 561 21%
c - 44.02 16 28 63 26009 604851 31470 90% 20 8037 561 21%
c - 45.88 15 29 64 26011 624051 31515 89% 20 8037 561 21%
c W 46.59 15 29 64 26016 630064 36560 89% 21 8037 561 21%
c - 47.71 18 29 65 26023 643551 31233 88% 21 8037 561 21%
c - 49.39 18 28 66 26031 663352 30439 88% 20 8037 561 21%
c O 49.61 18 28 66 26032 666066 32486 88% 20 8037 561 21%
c p 50.71 18 27 66 26039 680007 43285 88% 20 8037 561 21%
c - 51.03 18 27 67 26040 683454 30319 88% 20 8037 561 21%
c B 52.64 18 26 67 26041 703067 43813 87% 19 8037 561 21%
c - 52.75 18 26 68 26041 703854 30831 87% 19 8037 561 21%
c - 54.50 18 25 69 26042 724554 32674 87% 19 8037 561 21%
c W 56.27 18 24 69 26043 741068 45105 87% 18 8037 561 21%
c - 56.76 18 23 70 26043 745554 33738 87% 18 8037 561 21%
c p 58.36 18 23 70 26043 765007 50337 87% 18 8037 561 21%
c - 58.59 19 23 71 26043 766854 35201 87% 18 8037 561 21%
c I 59.90 19 24 71 26043 780071 45759 87% 18 8037 561 21%
c 
c  seconds  reductions        redundant  irredundant
c         MB      restarts           trail     variables
c          level       conflicts         glue      remaining
c 
c - 60.66 23 25 72 26043 788455 35888 87% 18 8037 561 21%
c - 62.80 24 26 73 26046 810355 37570 87% 18 8037 561 21%
c B 63.70 24 26 73 26052 820072 45735 88% 18 8037 561 21%
c - 65.07 20 26 74 26058 832556 36527 88% 18 8037 561 21%
c p 67.56 20 25 74 26068 855007 53856 88% 18 8037 561 21%
c - 67.62 23 25 75 26068 855056 35152 88% 18 8037 561 21%
c W 68.36 23 25 75 26072 861074 39129 88% 18 8037 561 21%
c - 69.92 23 25 76 26074 877857 35162 88% 18 8037 561 21%
c - 72.45 23 25 77 26081 900960 35847 88% 19 8037 561 21%
c O 72.66 23 25 77 26083 903075 37188 88% 19 8037 561 21%
c - 74.31 23 24 78 26091 924364 33721 87% 18 8037 561 21%
c s 74.40 23 24 78 26091 924364 33604 87% 18 8037 561 21%
c w 74.50 23 24 78 26091 924364 33578 87% 18 8037 561 21%
c B 76.29 23 23 78 26103 946077 49293 87% 18 8037 561 21%
c - 76.51 23 23 79 26104 948066 35138 87% 18 8037 561 21%
c p 76.68 23 23 79 26104 950007 36898 87% 18 8037 561 21%
c - 78.70 23 25 80 26105 972066 37750 87% 18 8037 561 21%
c W 80.75 23 25 80 26106 990078 53066 87% 18 8037 561 21%
c - 81.43 26 25 81 26106 996369 38420 87% 18 8037 561 21%
c - 83.88 26 24 82 26116 1020969 39803 87% 18 8037 561 21%
c 
c  seconds  reductions         redundant  irredundant
c         MB      restarts            trail     variables
c          level        conflicts         glue      remaining
c 
c ] 84.05 26 24 82 26117 1023008 41515 87% 18 8037 561 21%
c { 84.05 26 18 82 26117 1023008 41515 79% 10 8037 561 21%
c # 85.08 26 18 82 26888 1035079 52384 80% 10 8037 561 21%
c - 86.19 26 18 83 27756 1045870 41666 80% 10 8037 561 21%
c p 86.62 26 18 83 28200 1050009 45316 80% 10 8037 561 21%
c - 88.68 26 18 84 29649 1071072 44702 81% 10 8037 561 21%
c B 89.66 26 18 84 30529 1081081 53880 81% 10 8037 561 21%
c - 91.38 26 18 85 31674 1096572 47085 81% 10 8037 561 21%
c - 94.22 27 18 86 33472 1122372 48505 81% 10 8037 561 21%
c W 95.05 27 18 86 33941 1128083 53637 81% 10 8037 561 21%
c - 97.48 27 18 87 35596 1148472 49707 81% 10 8037 561 21%
c p 98.04 27 18 87 35846 1155009 55319 81% 10 8037 561 21%
c - 100.32 27 18 88 37294 1174872 50597 81% 10 8037 561 21%
c F 100.46 27 18 88 37412 1176085 51745 81% 10 8037 561 21%
c - 103.21 27 18 89 39175 1201575 51133 81% 10 8037 561 21%
c B 105.40 27 17 89 40577 1225086 71554 79% 10 8037 561 21%
c - 105.84 27 17 90 40787 1228575 51167 79% 10 8037 561 21%
c - 109.04 27 17 91 43178 1255876 53793 79% 10 8037 561 21%
c p 110.06 27 17 91 43849 1265012 62050 80% 10 8037 561 21%
c W 111.65 27 17 91 44607 1275089 71106 80% 10 8037 561 21%
c 
c  seconds   reductions         redundant  irredundant
c          MB      restarts            trail     variables
c           level        conflicts         glue      remaining
c 
c - 112.86 27 17 92 45365 1283477 54438 80% 10 8037 561 21%
c - 116.31 27 17 93 47496 1311377 55166 81% 10 8037 561 21%
c # 117.84 27 17 93 48395 1326091 68044 81% 10 8037 561 21%
c - 119.53 27 17 94 49268 1339578 55848 81% 10 8037 561 21%
c - 122.71 27 17 95 50960 1368078 56962 81% 10 8037 561 21%
c s 122.89 27 17 95 50960 1368078 56763 81% 10 8037 561 21%
c w 123.07 27 17 95 50960 1368078 56737 81% 10 8037 561 21%
c B 124.14 27 17 95 51642 1378092 65570 81% 10 8037 561 21%
c p 124.43 27 17 95 51824 1380012 67288 81% 10 8037 561 21%
c - 126.10 27 17 96 52499 1396882 57119 82% 10 8037 561 21%
c - 129.80 27 17 97 54970 1425983 58555 82% 10 8037 561 21%
c W 130.72 27 17 97 55300 1431094 63102 82% 10 8037 561 21%
c - 133.88 29 17 98 57030 1455384 59682 82% 10 8037 561 21%
c - 137.74 29 17 99 59216 1485084 60994 82% 10 8037 561 21%
c F 137.75 29 17 99 59216 1485096 61006 82% 10 8037 561 21%
c p 139.43 29 17 99 60015 1500014 73940 81% 10 8037 561 21%
c - 141.35 29 17 100 60966 1515087 60689 81% 10 8037 561 21%
c B 144.40 29 17 100 62706 1540097 82695 81% 10 8037 561 21%
c - 145.31 29 17 101 63280 1545387 62681 81% 10 8037 561 21%
c - 148.91 29 17 102 64912 1575987 62477 81% 10 8037 561 21%
c 
c  seconds    reductions         redundant  irredundant
c          MB       restarts            trail     variables
c           level         conflicts         glue      remaining
c 
c W 151.66 29 17 102 66135 1596101 79909 82% 10 8037 561 21%
c - 153.15 29 17 103 66887 1606887 63846 81% 10 8037 561 21%
c p 155.35 29 17 103 68166 1625019 79902 81% 10 8037 561 21%
c - 157.20 30 17 104 69052 1638087 64448 81% 10 8037 561 21%
c # 159.00 30 17 104 70107 1653102 77644 81% 10 8037 561 21%
c - 161.21 30 17 105 70981 1669587 66410 82% 10 8037 561 21%
c - 165.40 30 17 106 73051 1701387 67406 82% 10 8037 561 21%
c B 166.58 30 17 106 73798 1711104 75881 82% 10 8037 561 21%
c - 169.96 30 17 107 75689 1733490 67698 82% 10 8037 561 21%
c p 172.71 30 17 107 77184 1755020 86553 81% 10 8037 561 21%
c - 174.35 30 17 108 77839 1765890 68352 81% 10 8037 561 21%
c W 175.26 30 17 108 78085 1770105 71974 81% 10 8037 561 21%
c - 178.89 30 17 109 79741 1798592 68894 80% 10 8037 561 21%
c F 183.22 30 17 109 81977 1830109 96753 80% 10 8037 561 21%
c - 183.49 30 17 110 82077 1831592 71145 80% 10 8037 561 21%
c s 183.80 30 17 110 82077 1831592 70912 80% 10 8037 561 21%
c w 184.05 30 17 110 82077 1831592 70888 80% 10 8037 561 21%
c - 189.12 35 17 111 84561 1864893 72887 81% 10 8037 561 21%
c p 192.62 35 16 111 85997 1890021 94655 82% 10 8037 561 21%
c B 192.84 35 17 111 86101 1891110 95575 82% 10 8037 561 21%
c 
c  seconds    reductions         redundant  irredundant
c          MB       restarts            trail     variables
c           level         conflicts         glue      remaining
c 
c - 194.32 30 17 112 86733 1898493 72687 82% 10 8037 561 21%
c - 199.36 33 17 113 89018 1932393 73295 82% 10 8037 561 21%
c W 202.63 33 17 113 90271 1953111 90911 82% 10 8037 561 21%
c - 204.94 38 17 114 91280 1966593 73969 82% 10 8037 561 21%
c - 209.90 38 17 115 93428 2001093 73936 82% 10 8037 561 21%
c # 211.61 38 16 115 94039 2016112 87110 82% 10 8037 561 21%
c p 213.91 38 16 115 95073 2030021 98974 81% 10 8037 561 21%
c - 214.68 38 16 116 95223 2035894 74783 81% 10 8037 561 21%
c } 216.16 38 16 116 96031 2047010 84556 81% 10 8037 561 21%
c [ 216.16 38 24 116 96031 2047010 84556 87% 18 8037 561 21%
c - 218.98 38 22 117 96041 2070994 72892 84% 16 8037 561 21%
c I 219.87 38 23 117 96046 2080113 81042 84% 16 8037 561 21%
c - 222.90 38 24 118 96051 2106395 72782 85% 17 8037 561 21%
c - 227.49 44 25 119 96066 2142096 71500 85% 18 8037 561 21%
c B 227.87 44 25 119 96066 2145114 74155 85% 18 8037 561 21%
c p 231.43 29 27 119 96081 2175021 98985 86% 20 8037 561 21%
c - 231.88 29 27 120 96081 2178096 68782 86% 20 8037 561 21%
c W 236.58 29 28 120 96083 2211116 94974 86% 21 8037 561 21%
c - 237.14 29 28 121 96083 2214397 67809 86% 21 8037 561 21%
c - 242.60 30 29 122 96084 2250998 71107 87% 22 8037 561 21%
c 
c  seconds    reductions         redundant  irredundant
c          MB       restarts            trail     variables
c           level         conflicts         glue      remaining
c 
c O 246.43 30 28 122 96084 2278118 92679 87% 22 8037 561 21%
c - 247.74 29 28 123 96084 2287899 71407 87% 21 8037 561 21%
c p 252.34 29 26 123 96085 2325021 98601 86% 20 8037 561 21%
c - 252.44 27 26 124 96085 2325099 66600 86% 20 8037 561 21%
c B 254.97 27 25 124 96085 2346119 81257 86% 19 8037 561 21%
c - 256.88 33 27 125 96085 2362599 70427 86% 20 8037 561 21%
c s 257.14 33 27 125 96085 2362599 70288 86% 20 8037 561 21%
c w 257.41 33 27 125 96085 2362599 70275 86% 20 8037 561 21%
c - 262.35 40 29 126 96085 2400399 73670 87% 21 8037 561 21%
c W 265.02 40 29 126 96085 2415120 87028 87% 21 8037 561 21%
c - 268.17 33 28 127 96092 2438499 73986 87% 21 8037 561 21%
c - 273.81 35 28 128 96110 2476901 70197 88% 21 8037 561 21%
c p 274.22 35 28 128 96112 2480021 72481 88% 21 8037 561 21%
c I 274.85 35 27 128 96114 2485122 76587 88% 21 8037 561 21%
c - 278.93 43 30 129 96120 2515603 74540 88% 21 8037 561 21%
c - 284.61 36 31 130 96138 2554605 77566 88% 21 8037 561 21%
c B 284.81 36 31 130 96138 2556123 78989 88% 21 8037 561 21%
c - 289.38 38 30 131 96147 2593906 76474 88% 21 8037 561 21%
c W 294.87 38 29 131 96149 2628125 106805 88% 21 8037 561 21%
c - 295.78 38 29 132 96153 2633506 77640 88% 21 8037 561 21%
c 
c  seconds    reductions         redundant  irredundant
c          MB       restarts            trail     variables
c           level         conflicts         glue      remaining
c 
c p 296.71 38 29 132 96155 2640021 83205 88% 21 8037 561 21%
c - 301.37 38 29 133 96171 2673406 73330 88% 21 8037 561 21%
c O 305.29 38 28 133 96179 2701128 96543 88% 20 8037 561 21%
c - 307.01 38 27 134 96182 2713606 74110 88% 20 8037 561 21%
c - 312.18 38 25 135 96201 2754106 73931 87% 19 8037 561 21%
c B 314.77 38 25 135 96209 2775129 90671 87% 18 8037 561 21%
c - 317.45 40 26 136 96211 2794906 76519 87% 19 8037 561 21%
c p 318.71 40 26 136 96211 2805021 85444 86% 19 8037 561 21%
c - 323.72 40 27 137 96212 2836006 77921 87% 20 8037 561 21%
c W 326.60 40 27 137 96212 2850130 88845 86% 20 8037 561 21%
c - 330.78 40 28 138 96212 2877406 78745 87% 20 8037 561 21%
c - 337.38 40 28 139 96227 2919106 79217 87% 21 8037 561 21%
c s 337.68 40 28 139 96227 2919106 79123 87% 21 8037 561 21%
c w 337.95 40 28 139 96227 2919106 79096 87% 21 8037 561 21%
c I 338.92 40 28 139 96227 2926131 84465 87% 21 8037 561 21%
c - 343.40 40 26 140 96243 2961106 78583 87% 20 8037 561 21%
c p 345.31 40 25 140 96243 2975022 88070 87% 19 8037 561 21%
c B 349.23 40 25 140 96258 3003132 110260 87% 19 8037 561 21%
c - 349.33 40 25 141 96258 3003407 75128 87% 19 8037 561 21%
c - 354.68 41 26 142 96274 3046007 77373 85% 19 8037 561 21%
c 
c  seconds    reductions         redundant   irredundant
c          MB       restarts             trail     variables
c           level         conflicts          glue      remaining
c 
c ] 359.73 41 25 142 96275 3081133 108250 84% 18 8037 561 21%
c 1 359.74 41 25 142 96275 3081133 108250 84% 18 8037 561 21%
c 
c --- [ result ] -------------------------------------------------------------
c 
s SATISFIABLE
v -1 -2 -3 -4 -5 -6 -7 8 -9 10 -11 -12 -13 -14 -15 -16 -17 -18 -19 -20 -21 -22
v -23 24 -25 26 -27 28 -29 -30 31 -32 -33 -34 -35 -36 37 38 -39 -40 -41 -42
v -43 -44 -45 -46 47 -48 -49 -50 -51 -52 -53 54 55 56 -57 -58 59 -60 -61 62 63
v -64 -65 -66 -67 -68 -69 -70 -71 -72 -73 -74 -75 76 -77 -78 -79 -80 -81 82
v -83 -84 85 86 -87 -88 -89 -90 -91 -92 -93 -94 -95 -96 -97 -98 -99 -100 -101
v -102 -103 -104 -105 -106 -107 -108 109 -110 -111 -112 113 -114 -115 -116
v -117 -118 119 -120 121 -122 -123 -124 -125 -126 -127 -128 129 -130 -131 -132
v -133 -134 -135 -136 -137 -138 -139 140 -141 -142 -143 144 -145 -146 -147 148
v -149 -150 -151 -152 -153 -154 -155 156 -157 -158 -159 -160 -161 -162 -163
v -164 -165 -166 -167 -168 -169 -170 -171 -172 173 174 -175 -176 -177 -178
v -179 180 -181 182 -183 -184 -185 -186 -187 -188 -189 -190 -191 -192 193 -194
v 195 -196 -197 -198 -199 -200 -201 -202 -203 -204 -205 -206 -207 -208 -209
v -210 211 -212 -213 214 -215 216 -217 -218 -219 -220 -221 -222 223 -224 -225
v 226 -227 -228 -229 -230 -231 232 -233 -234 -235 -236 -237 -238 -239 240 241
v -242 -243 -244 -245 246 -247 -248 -249 -250 -251 -252 -253 254 -255 -256 257
v 258 259 -260 261 262 -263 264 -265 -266 -267 -268 -269 270 -271 -272 -273
v -274 -275 276 -277 278 279 -280 -281 282 283 284 -285 286 287 -288 -289 290
v -291 292 293 -294 295 296 297 298 -299 -300 -301 -302 -303 -304 -305 -306
v -307 308 -309 310 311 -312 313 -314 315 -316 317 -318 -319 320 -321 -322 323
v -324 -325 -326 -327 328 329 330 331 332 333 334 335 336 337 338 339 340 341
v 342 343 344 345 346 347 348 349 350 351 352 353 354 355 356 357 358 359 360
v 361 362 363 364 365 366 367 368 369 370 371 372 373 374 375 376 377 378 379
v 380 381 382 383 384 385 386 387 388 389 390 391 392 393 394 395 396 397 398
v -399 -400 -401 -402 -403 -404 405 406 407 408 409 410 411 412 413 414 415
v 416 417 418 419 420 421 422 423 424 425 426 427 428 429 430 431 432 433 434
v 435 436 437 438 439 440 441 442 443 444 445 446 447 448 449 450 451 452 453
v 454 455 456 457 458 459 460 461 462 463 464 465 466 467 468 469 470 471 472
v -473 -474 -475 -476 -477 -478 -479 480 481 482 483 484 485 486 487 488 489
v 490 491 492 493 494 495 496 497 498 499 500 501 502 503 504 505 506 507 508
v 509 510 511 512 513 514 515 516 517 518 519 520 521 522 523 524 525 526 527
v 528 529 530 531 532 533 534 535 536 537 538 539 540 541 542 543 544 545 546
v -547 -548 -549 -550 -551 -552 -553 -554 555 556 557 558 559 560 561 562 563
v 564 565 566 567 568 569 570 571 572 573 574 575 576 577 578 579 580 581 582
v 583 584 585 586 587 588 589 590 591 592 593 594 595 596 597 598 599 600 601
v 602 603 604 605 606 607 608 609 610 611 612 613 614 615 616 617 618 619 620
v -621 -622 -623 -624 -625 -626 -627 -628 -629 -630 631 632 633 634 635 636
v 637 638 639 640 641 642 643 644 645 646 647 648 649 650 651 652 653 654 655
v 656 657 658 659 660 661 662 663 664 665 666 667 668 669 670 671 672 673 674
v 675 676 677 678 679 680 681 682 683 684 685 686 687 688 689 690 691 692 693
v 694 -695 -696 -697 -698 -699 -700 -701 -702 -703 -704 -705 706 707 708 709
v 710 711 712 713 714 715 716 717 718 719 720 721 722 723 724 725 726 727 728
v 729 730 731 732 733 734 735 736 737 738 739 740 741 742 743 744 745 746 747
v 748 749 750 751 752 753 754 755 756 757 758 759 760 761 762 763 764 765 766
v 767 768 -769 -770 -771 -772 -773 -774 -775 -776 -777 -778 -779 -780 -781 782
v 783 784 785 786 787 788 789 790 791 792 793 794 795 796 797 798 799 800 801
v 802 803 804 805 806 807 808 809 810 811 812 813 814 815 816 817 818 819 820
v 821 822 823 824 825 826 827 828 829 830 831 832 833 834 835 836 837 838 839
v 840 841 842 -843 -844 -845 -846 -847 -848 -849 -850 -851 -852 -853 -854 -855
v -856 -857 -858 -859 -860 -861 862 863 864 865 866 867 868 869 870 871 872
v 873 874 875 876 877 878 879 880 881 882 883 884 885 886 887 888 889 890 891
v 892 893 894 895 896 897 898 899 900 901 902 903 904 905 906 907 908 909 910
v 911 912 913 914 915 916 -917 -918 -919 -920 -921 -922 -923 -924 -925 -926
v -927 -928 -929 -930 -931 -932 -933 -934 -935 -936 -937 -938 -939 -940 -941
v 942 943 944 945 946 947 948 949 950 951 952 953 954 955 956 957 958 959 960
v 961 962 963 964 965 966 967 968 969 970 971 972 973 974 975 976 977 978 979
v 980 981 982 983 984 985 986 987 988 989 990 -991 -992 -993 -994 -995 -996
v -997 -998 -999 -1000 -1001 -1002 -1003 -1004 -1005 -1006 -1007 -1008 -1009
v -1010 -1011 -1012 -1013 -1014 -1015 -1016 -1017 1018 1019 1020 1021 1022
v 1023 1024 1025 1026 1027 1028 1029 1030 1031 1032 1033 1034 1035 1036 1037
v 1038 1039 1040 1041 1042 1043 1044 1045 1046 1047 1048 1049 1050 1051 1052
v 1053 1054 1055 1056 1057 1058 1059 1060 1061 1062 1063 1064 -1065 -1066
v -1067 -1068 -1069 -1070 -1071 -1072 -1073 -1074 -1075 -1076 -1077 -1078
v -1079 -1080 -1081 -1082 -1083 -1084 -1085 -1086 -1087 -1088 -1089 -1090
v -1091 -1092 1093 1094 1095 1096 1097 1098 1099 1100 1101 1102 1103 1104 1105
v 1106 1107 1108 1109 1110 1111 1112 1113 1114 1115 1116 1117 1118 1119 1120
v 1121 1122 1123 1124 1125 1126 1127 1128 1129 1130 1131 1132 1133 1134 1135
v 1136 1137 1138 -1139 -1140 -1141 -1142 -1143 -1144 -1145 -1146 -1147 -1148
v -1149 -1150 -1151 -1152 -1153 -1154 -1155 -1156 -1157 -1158 -1159 -1160
v -1161 -1162 -1163 -1164 -1165 -1166 -1167 -1168 -1169 1170 1171 1172 1173
v 1174 1175 1176 1177 1178 1179 1180 1181 1182 1183 1184 1185 1186 1187 1188
v 1189 1190 1191 1192 1193 1194 1195 1196 1197 1198 1199 1200 1201 1202 1203
v 1204 1205 1206 1207 1208 1209 1210 1211 1212 -1213 -1214 -1215 -1216 -1217
v -1218 -1219 -1220 -1221 -1222 -1223 -1224 -1225 -1226 -1227 -1228 -1229
v -1230 -1231 -1232 -1233 -1234 -1235 -1236 -1237 -1238 -1239 -1240 -1241
v -1242 -1243 -1244 1245 1246 1247 1248 1249 1250 1251 1252 1253 1254 1255
v 1256 1257 1258 1259 1260 1261 1262 1263 1264 1265 1266 1267 1268 1269 1270
v 1271 1272 1273 1274 1275 1276 1277 1278 1279 1280 1281 1282 1283 1284 1285
v 1286 -1287 -1288 -1289 -1290 -1291 -1292 -1293 -1294 -1295 -1296 -1297 -1298
v -1299 -1300 -1301 -1302 -1303 -1304 -1305 -1306 -1307 -1308 -1309 -1310
v -1311 -1312 -1313 -1314 -1315 -1316 -1317 -1318 -1319 1320 1321 1322 1323
v 1324 1325 1326 1327 1328 1329 1330 1331 1332 1333 1334 1335 1336 1337 1338
v 1339 1340 1341 1342 1343 1344 1345 1346 1347 1348 1349 1350 1351 1352 1353
v 1354 1355 1356 1357 1358 1359 1360 -1361 -1362 -1363 -1364 -1365 -1366 -1367
v -1368 -1369 -1370 -1371 -1372 -1373 -1374 -1375 -1376 -1377 -1378 -1379
v -1380 -1381 -1382 -1383 -1384 -1385 -1386 -1387 -1388 -1389 -1390 -1391
v -1392 -1393 -1394 -1395 1396 1397 1398 1399 1400 1401 1402 1403 1404 1405
v 1406 1407 1408 1409 1410 1411 1412 1413 1414 1415 1416 1417 1418 1419 1420
v 1421 1422 1423 1424 1425 1426 1427 1428 1429 1430 1431 1432 1433 1434 -1435
v -1436 -1437 -1438 -1439 -1440 -1441 -1442 -1443 -1444 -1445 -1446 -1447
v -1448 -1449 -1450 -1451 -1452 -1453 -1454 -1455 -1456 -1457 -1458 -1459
v -1460 -1461 -1462 -1463 -1464 -1465 -1466 -1467 -1468 -1469 -1470 1471 1472
v 1473 1474 1475 1476 1477 1478 1479 1480 1481 1482 1483 1484 1485 1486 1487
v 1488 1489 1490 1491 1492 1493 1494 1495 1496 1497 1498 1499 1500 1501 1502
v 1503 1504 1505 1506 1507 1508 -1509 -1510 -1511 -1512 -1513 -1514 -1515
v -1516 -1517 -1518 -1519 -1520 -1521 -1522 -1523 -1524 -1525 -1526 -1527
v -1528 -1529 -1530 -1531 -1532 -1533 -1534 -1535 -1536 -1537 -1538 -1539
v -1540 -1541 -1542 -1543 -1544 -1545 -1546 -1547 1548 1549 1550 1551 1552
v 1553 1554 1555 1556 1557 1558 1559 1560 1561 1562 1563 1564 1565 1566 1567
v 1568 1569 1570 1571 1572 1573 1574 1575 1576 1577 1578 1579 1580 1581 1582
v -1583 -1584 -1585 -1586 -1587 -1588 -1589 -1590 -1591 -1592 -1593 -1594
v -1595 -1596 -1597 -1598 -1599 -1600 -1601 -1602 -1603 -1604 -1605 -1606
v -1607 -1608 -1609 -1610 -1611 -1612 -1613 -1614 -1615 -1616 -1617 -1618
v -1619 -1620 -1621 -1622 -1623 1624 1625 1626 1627 1628 1629 1630 1631 1632
v 1633 1634 1635 1636 1637 1638 1639 1640 1641 1642 1643 1644 1645 1646 1647
v 1648 1649 1650 1651 1652 1653 1654 1655 1656 -1657 -1658 -1659 -1660 -1661
v -1662 -1663 -1664 -1665 -1666 -1667 -1668 -1669 -1670 -1671 -1672 -1673
v -1674 -1675 -1676 -1677 -1678 -1679 -1680 -1681 -1682 -1683 -1684 -1685
v -1686 -1687 -1688 -1689 -1690 -1691 -1692 -1693 -1694 -1695 -1696 -1697
v -1698 1699 1700 1701 1702 1703 1704 1705 1706 1707 1708 1709 1710 1711 1712
v 1713 1714 1715 1716 1717 1718 1719 1720 1721 1722 1723 1724 1725 1726 1727
v 1728 1729 1730 -1731 -1732 -1733 -1734 -1735 -1736 -1737 -1738 -1739 -1740
v -1741 -1742 -1743 -1744 -1745 -1746 -1747 -1748 -1749 -1750 -1751 -1752
v -1753 -1754 -1755 -1756 -1757 -1758 -1759 -1760 -1761 -1762 -1763 -1764
v -1765 -1766 -1767 -1768 -1769 -1770 -1771 -1772 -1773 -1774 1775 1776 1777
v 1778 1779 1780 1781 1782 1783 1784 1785 1786 1787 1788 1789 1790 1791 1792
v 1793 1794 1795 1796 1797 1798 1799 1800 1801 1802 1803 1804 -1805 -1806
v -1807 -1808 -1809 -1810 -1811 -1812 -1813 -1814 -1815 -1816 -1817 -1818
v -1819 -1820 -1821 -1822 -1823 -1824 -1825 -1826 -1827 -1828 -1829 -1830
v -1831 -1832 -1833 -1834 -1835 -1836 -1837 -1838 -1839 -1840 -1841 -1842
v -1843 -1844 -1845 -1846 -1847 -1848 -1849 1850 1851 1852 1853 1854 1855 1856
v 1857 1858 1859 1860 1861 1862 1863 1864 1865 1866 1867 1868 1869 1870 1871
v 1872 1873 1874 1875 1876 1877 1878 -1879 -1880 -1881 -1882 -1883 -1884 -1885
v -1886 -1887 -1888 -1889 -1890 -1891 -1892 -1893 -1894 -1895 -1896 -1897
v -1898 -1899 -1900 -1901 -1902 -1903 -1904 -1905 -1906 -1907 -1908 -1909
v -1910 -1911 -1912 -1913 -1914 -1915 -1916 -1917 -1918 -1919 -1920 -1921
v -1922 -1923 -1924 1925 1926 1927 1928 1929 1930 1931 1932 1933 1934 1935
v 1936 1937 1938 1939 1940 1941 1942 1943 1944 1945 1946 1947 1948 1949 1950
v 1951 1952 -1953 -1954 -1955 -1956 -1957 -1958 -1959 -1960 -1961 -1962 -1963
v -1964 -1965 -1966 -1967 -1968 -1969 -1970 -1971 -1972 -1973 -1974 -1975
v -1976 -1977 -1978 -1979 -1980 -1981 -1982 -1983 -1984 -1985 -1986 -1987
v -1988 -1989 -1990 -1991 -1992 -1993 -1994 -1995 -1996 -1997 -1998 -1999 2000
v 2001 2002 2003 2004 2005 2006 2007 2008 2009 2010 2011 2012 2013 2014 2015
v 2016 2017 2018 2019 2020 2021 2022 2023 2024 2025 2026 -2027 -2028 -2029
v -2030 -2031 -2032 -2033 -2034 -2035 -2036 -2037 -2038 -2039 -2040 -2041
v -2042 -2043 -2044 -2045 -2046 -2047 -2048 -2049 -2050 -2051 -2052 -2053
v -2054 -2055 -2056 -2057 -2058 -2059 -2060 -2061 -2062 -2063 -2064 -2065
v -2066 -2067 -2068 -2069 -2070 -2071 -2072 -2073 -2074 -2075 -2076 -2077
v -2078 -2079 -2080 -2081 -2082 -2083 2084 2085 2086 2087 2088 2089 2090 2091
v 2092 2093 2094 2095 2096 2097 2098 2099 2100 -2101 -2102 -2103 -2104 -2105
v -2106 -2107 -2108 -2109 -2110 -2111 -2112 -2113 -2114 -2115 -2116 -2117
v -2118 -2119 -2120 -2121 -2122 -2123 -2124 -2125 -2126 -2127 -2128 -2129
v -2130 -2131 -2132 -2133 -2134 -2135 -2136 -2137 -2138 -2139 -2140 -2141
v -2142 -2143 -2144 -2145 -2146 -2147 -2148 -2149 -2150 -2151 -2152 -2153
v -2154 -2155 -2156 -2157 -2158 -2159 2160 2161 2162 2163 2164 2165 2166 2167
v 2168 2169 2170 2171 2172 2173 2174 -2175 -2176 -2177 -2178 -2179 -2180 -2181
v -2182 -2183 -2184 -2185 -2186 -2187 -2188 -2189 -2190 -2191 -2192 -2193
v -2194 -2195 -2196 -2197 -2198 -2199 -2200 -2201 -2202 -2203 -2204 -2205
v -2206 -2207 -2208 -2209 -2210 -2211 -2212 -2213 -2214 -2215 -2216 -2217
v -2218 -2219 -2220 -2221 -2222 -2223 -2224 -2225 -2226 -2227 -2228 -2229
v -2230 -2231 -2232 -2233 -2234 2235 2236 2237 2238 2239 2240 2241 2242 2243
v 2244 2245 2246 2247 2248 -2249 -2250 -2251 -2252 -2253 -2254 -2255 -2256
v -2257 -2258 -2259 -2260 -2261 -2262 -2263 -2264 -2265 -2266 -2267 -2268
v -2269 -2270 -2271 -2272 -2273 -2274 -2275 -2276 -2277 -2278 -2279 -2280
v -2281 -2282 -2283 -2284 -2285 -2286 -2287 -2288 -2289 -2290 -2291 -2292
v -2293 -2294 -2295 -2296 -2297 -2298 -2299 -2300 -2301 -2302 -2303 -2304
v -2305 -2306 -2307 -2308 -2309 -2310 2311 2312 2313 2314 2315 2316 2317 2318
v 2319 2320 2321 2322 -2323 -2324 -2325 -2326 -2327 -2328 -2329 -2330 -2331
v -2332 -2333 -2334 -2335 -2336 -2337 -2338 -2339 -2340 -2341 -2342 -2343
v -2344 -2345 -2346 -2347 -2348 -2349 -2350 -2351 -2352 -2353 -2354 -2355
v -2356 -2357 -2358 -2359 -2360 -2361 -2362 -2363 -2364 -2365 -2366 -2367
v -2368 -2369 -2370 -2371 -2372 -2373 -2374 -2375 -2376 -2377 -2378 -2379
v -2380 -2381 -2382 -2383 -2384 -2385 -2386 2387 2388 2389 2390 2391 2392 2393
v 2394 2395 2396 -2397 -2398 -2399 -2400 -2401 -2402 -2403 -2404 -2405 -2406
v -2407 -2408 -2409 -2410 -2411 -2412 -2413 -2414 -2415 -2416 -2417 -2418
v -2419 -2420 -2421 -2422 -2423 -2424 -2425 -2426 -2427 -2428 -2429 -2430
v -2431 -2432 -2433 -2434 -2435 -2436 -2437 -2438 -2439 -2440 -2441 -2442
v -2443 -2444 -2445 -2446 -2447 -2448 -2449 -2450 -2451 -2452 -2453 -2454
v -2455 -2456 -2457 -2458 -2459 -2460 -2461 -2462 2463 2464 2465 2466 2467
v 2468 2469 2470 -2471 -2472 -2473 -2474 -2475 -2476 -2477 -2478 -2479 -2480
v -2481 -2482 -2483 -2484 -2485 -2486 -2487 -2488 -2489 -2490 -2491 -2492
v -2493 -2494 -2495 -2496 -2497 -2498 -2499 -2500 -2501 -2502 -2503 -2504
v -2505 -2506 -2507 -2508 -2509 -2510 -2511 -2512 -2513 -2514 -2515 -2516
v -2517 -2518 -2519 -2520 -2521 -2522 -2523 -2524 -2525 -2526 -2527 -2528
v -2529 -2530 -2531 -2532 -2533 -2534 -2535 -2536 -2537 -2538 -2539 2540 2541
v 2542 2543 2544 -2545 -2546 -2547 -2548 -2549 -2550 -2551 -2552 -2553 -2554
v -2555 -2556 -2557 -2558 -2559 -2560 -2561 -2562 -2563 -2564 -2565 -2566
v -2567 -2568 -2569 -2570 -2571 -2572 -2573 -2574 -2575 -2576 -2577 -2578
v -2579 -2580 -2581 -2582 -2583 -2584 -2585 -2586 -2587 -2588 -2589 -2590
v -2591 -2592 -2593 -2594 -2595 -2596 -2597 -2598 -2599 -2600 -2601 -2602
v -2603 -2604 -2605 -2606 -2607 -2608 -2609 -2610 -2611 -2612 -2613 -2614
v -2615 -2616 2617 2618 -2619 -2620 -2621 -2622 -2623 -2624 -2625 -2626 -2627
v -2628 -2629 -2630 -2631 -2632 -2633 -2634 -2635 -2636 -2637 -2638 -2639
v -2640 -2641 -2642 -2643 -2644 -2645 -2646 -2647 -2648 -2649 -2650 -2651
v -2652 -2653 -2654 -2655 -2656 -2657 -2658 -2659 -2660 -2661 -2662 -2663
v -2664 -2665 -2666 -2667 -2668 -2669 -2670 -2671 -2672 -2673 -2674 -2675
v -2676 -2677 -2678 -2679 -2680 -2681 -2682 -2683 -2684 -2685 -2686 -2687
v -2688 -2689 -2690 -2691 -2692 0
c 
c --- [ run-time profiling ] -------------------------------------------------
c 
c process time taken by individual solving procedures
c (percentage relative to process time for solving)
c 
c       355.22   98.74% search
c       196.52   54.63% stable
c       151.96   42.24% unstable
c         6.73    1.87% walk
c         4.52    1.26% simplify
c         1.59    0.44% subsume
c         1.28    0.36% vivify
c         0.77    0.21% probe
c         0.26    0.07% ternary
c         0.07    0.02% elim
c         0.00    0.00% parse
c         0.00    0.00% lucky
c   =================================
c       359.73  100.00% solve
c 
c last line shows process time for solving
c (percentage relative to total process time)
c 
c --- [ statistics ] ---------------------------------------------------------
c 
c chronological:            560740        18.20 %  of conflicts
c conflicts:               3081133      8565.12    per second
c decisions:               5041167     14013.73    per second
c eliminated:                 2048        76.08 %  of all variables
c fixed:                        83         3.08 %  of all variables
c learned:                 3027641        98.26 %  per conflict
c learned_lits:          128086720       100.00 %  learned literals
c minimized:                     0         0.00 %  learned literals
c shrunken:               40863076        31.90 %  learned literals
c minishrunken:           13893721        10.85 %  learned literals
c propagations:          243901599         0.68 M  per second
c reduced:                 2491355        80.86 %  per conflict
c rephased:                     78     39501.71    interval
c restarts:                  96275        32.00    interval
c stabilizing:                   6        55.70 %  of conflicts
c subsumed:                 413279         6.79 %  of all clauses
c strengthened:              14076         0.23 %  of all clauses
c ternary:                      35         0.04 %  of resolved
c vivified:                    307         0.01 %  of all clauses
c walked:                       25    123245.32    interval
c weakened:                   8760         2.89    average size
c 
c seconds are measured in process time for solving
c 
c --- [ resources ] ----------------------------------------------------------
c 
c total process time since initialization:       359.74    seconds
c total real time since initialization:          359.82    seconds
c maximum resident set size of process:           43.69    MB
c 
c --- [ shutting down ] ------------------------------------------------------
c 
c exit 10
